3 100
0 35.0 35.0 0.0 0.0 0 230
2 41.0 49.0 10.0 10.0 0 204
3 35.0 17.0 10.0 7.0 0 202
4 55.0 45.0 10.0 13.0 0 197
5 55.0 20.0 10.0 19.0 139 169
6 15.0 30.0 10.0 26.0 0 199
7 25.0 30.0 10.0 3.0 89 119
8 20.0 50.0 10.0 5.0 0 198
9 10.0 43.0 10.0 9.0 85 115
10 55.0 60.0 10.0 16.0 87 117
11 30.0 60.0 10.0 16.0 114 144
12 20.0 65.0 10.0 12.0 57 87
13 50.0 35.0 10.0 19.0 0 205
14 30.0 25.0 10.0 23.0 149 179
15 15.0 10.0 10.0 20.0 0 187
16 30.0 5.0 10.0 8.0 51 81
17 10.0 20.0 10.0 19.0 0 190
18 5.0 30.0 10.0 2.0 147 177
19 20.0 40.0 10.0 12.0 0 204
20 15.0 60.0 10.0 17.0 0 187
21 45.0 65.0 10.0 9.0 0 188
22 45.0 20.0 10.0 11.0 0 201
23 45.0 10.0 10.0 18.0 87 117
24 55.0 5.0 10.0 29.0 58 88
25 65.0 35.0 10.0 3.0 0 190
26 65.0 20.0 10.0 6.0 156 186
27 45.0 30.0 10.0 17.0 0 208
28 35.0 40.0 10.0 16.0 27 57
29 41.0 37.0 10.0 16.0 0 213
30 64.0 42.0 10.0 9.0 0 190
31 40.0 60.0 10.0 21.0 61 91
32 31.0 52.0 10.0 27.0 0 202
33 35.0 69.0 10.0 23.0 0 186
34 53.0 52.0 10.0 11.0 27 57
35 65.0 55.0 10.0 14.0 0 183
36 63.0 65.0 10.0 8.0 133 163
37 2.0 60.0 10.0 5.0 41 71
38 20.0 20.0 10.0 8.0 0 198
39 5.0 5.0 10.0 16.0 73 103
40 60.0 12.0 10.0 31.0 34 64
41 40.0 25.0 10.0 9.0 75 105
42 42.0 7.0 10.0 5.0 87 117
43 24.0 12.0 10.0 5.0 25 55
44 23.0 3.0 10.0 7.0 0 185
45 11.0 14.0 10.0 18.0 59 89
46 6.0 38.0 10.0 16.0 29 59
47 2.0 48.0 10.0 1.0 0 184
48 8.0 56.0 10.0 27.0 0 185
49 13.0 52.0 10.0 36.0 0 192
50 6.0 68.0 10.0 30.0 98 128
51 47.0 47.0 10.0 13.0 0 203
52 49.0 58.0 10.0 10.0 0 193
53 27.0 43.0 10.0 9.0 0 208
54 37.0 31.0 10.0 14.0 85 115
55 57.0 29.0 10.0 18.0 0 197
56 63.0 23.0 10.0 2.0 126 156
57 53.0 12.0 10.0 6.0 120 150
58 32.0 12.0 10.0 7.0 0 196
59 36.0 26.0 10.0 18.0 180 210
60 21.0 24.0 10.0 28.0 0 202
61 17.0 34.0 10.0 3.0 0 201
62 12.0 24.0 10.0 13.0 0 194
63 24.0 58.0 10.0 19.0 48 78
64 27.0 69.0 10.0 10.0 0 185
65 15.0 77.0 10.0 9.0 63 93
66 62.0 77.0 10.0 20.0 49 79
67 49.0 73.0 10.0 25.0 117 147
68 67.0 5.0 10.0 25.0 73 103
69 56.0 39.0 10.0 36.0 132 162
70 37.0 47.0 10.0 6.0 40 70
71 37.0 56.0 10.0 5.0 168 198
72 57.0 68.0 10.0 15.0 0 180
73 47.0 16.0 10.0 25.0 0 197
74 44.0 17.0 10.0 9.0 0 199
75 46.0 13.0 10.0 8.0 139 169
76 49.0 11.0 10.0 18.0 0 192
77 49.0 42.0 10.0 13.0 63 93
78 53.0 43.0 10.0 14.0 169 199
79 61.0 52.0 10.0 3.0 86 116
80 57.0 48.0 10.0 23.0 82 112
81 56.0 37.0 10.0 6.0 168 198
82 55.0 54.0 10.0 26.0 0 192
83 15.0 47.0 10.0 16.0 0 196
84 14.0 37.0 10.0 11.0 0 198
85 11.0 31.0 10.0 7.0 91 121
86 16.0 22.0 10.0 41.0 0 196
87 4.0 18.0 10.0 35.0 0 184
88 28.0 18.0 10.0 26.0 83 113
89 26.0 52.0 10.0 9.0 64 94
90 26.0 35.0 10.0 15.0 0 211
91 31.0 67.0 10.0 3.0 0 187
92 15.0 19.0 10.0 1.0 0 194
93 22.0 22.0 10.0 2.0 18 48
94 18.0 24.0 10.0 22.0 169 199
95 26.0 27.0 10.0 27.0 0 207
96 25.0 24.0 10.0 20.0 0 205
97 22.0 27.0 10.0 11.0 0 204
98 25.0 21.0 10.0 12.0 0 202
99 19.0 21.0 10.0 10.0 0 198
100 20.0 26.0 10.0 9.0 73 103
101 18.0 18.0 10.0 17.0 165 195